NAME: line_70_9
TYPE: TSP
COMMENT: line_70_9
DIMENSION: 70
EDGE_WEIGHT_TYPE: EUC_2D
NODE_COORD_SECTION
1 0.0 13.0
2 0.0 69.0
3 0.0 169.0
4 0.0 93.0
5 0.0 33.0
6 0.0 482.0
7 0.0 25.0
8 0.0 139.0
9 0.0 195.0
10 0.0 698.0
11 0.0 92.0
12 0.0 319.0
13 0.0 430.0
14 0.0 690.0
15 0.0 128.0
16 0.0 213.0
17 0.0 450.0
18 0.0 391.0
19 0.0 348.0
20 0.0 699.0
21 0.0 646.0
22 0.0 85.0
23 0.0 202.0
24 0.0 412.0
25 0.0 367.0
26 0.0 19.0
27 0.0 620.0
28 0.0 87.0
29 0.0 158.0
30 0.0 294.0
31 0.0 524.0
32 0.0 643.0
33 0.0 448.0
34 0.0 517.0
35 0.0 37.0
36 0.0 448.0
37 0.0 330.0
38 0.0 97.0
39 0.0 105.0
40 0.0 556.0
41 0.0 143.0
42 0.0 636.0
43 0.0 376.0
44 0.0 124.0
45 0.0 149.0
46 0.0 63.0
47 0.0 148.0
48 0.0 6.0
49 0.0 694.0
50 0.0 32.0
51 0.0 119.0
52 0.0 304.0
53 0.0 358.0
54 0.0 175.0
55 0.0 426.0
56 0.0 566.0
57 0.0 322.0
58 0.0 495.0
59 0.0 403.0
60 0.0 509.0
61 0.0 330.0
62 0.0 317.0
63 0.0 279.0
64 0.0 128.0
65 0.0 486.0
66 0.0 68.0
67 0.0 101.0
68 0.0 178.0
69 0.0 82.0
70 0.0 526.0
